c Reduced graph for queen10_10 generated by Cyril Grelier
p edge 100 1470
e 1 8
e 1 12
e 1 14
e 1 24
e 1 26
e 1 27
e 1 28
e 1 30
e 1 34
e 1 36
e 1 37
e 1 39
e 1 40
e 1 45
e 1 47
e 1 49
e 1 50
e 1 51
e 1 53
e 1 55
e 1 61
e 1 69
e 1 71
e 1 77
e 1 79
e 1 82
e 1 87
e 1 91
e 1 93
e 1 94
e 1 95
e 1 98
e 1 100
e 2 8
e 2 10
e 2 12
e 2 15
e 2 18
e 2 19
e 2 20
e 2 22
e 2 30
e 2 38
e 2 42
e 2 44
e 2 51
e 2 52
e 2 61
e 2 63
e 2 64
e 2 66
e 2 67
e 2 68
e 2 72
e 2 73
e 2 77
e 2 82
e 2 83
e 2 86
e 2 92
e 2 93
e 2 100
e 3 11
e 3 15
e 3 19
e 3 20
e 3 22
e 3 29
e 3 32
e 3 33
e 3 34
e 3 37
e 3 46
e 3 47
e 3 53
e 3 54
e 3 58
e 3 62
e 3 69
e 3 72
e 3 73
e 3 74
e 3 76
e 3 80
e 3 84
e 3 85
e 3 87
e 3 96
e 3 98
e 4 5
e 4 6
e 4 7
e 4 8
e 4 15
e 4 25
e 4 26
e 4 31
e 4 38
e 4 39
e 4 40
e 4 48
e 4 50
e 4 51
e 4 56
e 4 62
e 4 65
e 4 66
e 4 68
e 4 74
e 4 76
e 4 81
e 4 90
e 4 91
e 4 92
e 4 95
e 4 100
e 5 6
e 5 11
e 5 16
e 5 17
e 5 23
e 5 25
e 5 26
e 5 27
e 5 28
e 5 30
e 5 31
e 5 36
e 5 48
e 5 54
e 5 56
e 5 57
e 5 65
e 5 66
e 5 67
e 5 70
e 5 73
e 5 76
e 5 77
e 5 86
e 5 96
e 5 100
e 6 7
e 6 9
e 6 14
e 6 22
e 6 24
e 6 25
e 6 26
e 6 29
e 6 32
e 6 35
e 6 43
e 6 47
e 6 48
e 6 57
e 6 65
e 6 66
e 6 67
e 6 76
e 6 82
e 6 83
e 6 86
e 6 88
e 6 92
e 6 98
e 6 100
e 7 10
e 7 23
e 7 24
e 7 25
e 7 27
e 7 30
e 7 31
e 7 32
e 7 35
e 7 37
e 7 38
e 7 39
e 7 41
e 7 46
e 7 50
e 7 51
e 7 54
e 7 57
e 7 59
e 7 62
e 7 64
e 7 73
e 7 74
e 7 79
e 7 81
e 7 86
e 7 88
e 7 91
e 7 92
e 7 97
e 7 98
e 8 12
e 8 13
e 8 15
e 8 18
e 8 22
e 8 27
e 8 30
e 8 34
e 8 37
e 8 38
e 8 45
e 8 52
e 8 55
e 8 56
e 8 57
e 8 58
e 8 66
e 8 67
e 8 68
e 8 78
e 8 82
e 8 86
e 8 91
e 8 92
e 8 94
e 8 95
e 8 97
e 8 100
e 9 10
e 9 13
e 9 14
e 9 16
e 9 18
e 9 20
e 9 24
e 9 29
e 9 35
e 9 43
e 9 44
e 9 47
e 9 50
e 9 54
e 9 55
e 9 58
e 9 59
e 9 67
e 9 72
e 9 75
e 9 80
e 9 81
e 9 82
e 9 87
e 9 92
e 9 94
e 9 96
e 9 99
e 10 13
e 10 20
e 10 21
e 10 23
e 10 25
e 10 28
e 10 30
e 10 32
e 10 33
e 10 35
e 10 37
e 10 43
e 10 44
e 10 45
e 10 46
e 10 58
e 10 59
e 10 61
e 10 62
e 10 63
e 10 68
e 10 73
e 10 83
e 10 93
e 10 99
e 10 100
e 11 16
e 11 19
e 11 20
e 11 23
e 11 27
e 11 28
e 11 34
e 11 43
e 11 47
e 11 49
e 11 55
e 11 56
e 11 58
e 11 61
e 11 63
e 11 69
e 11 74
e 11 77
e 11 81
e 11 84
e 11 85
e 11 86
e 11 90
e 11 95
e 11 96
e 12 15
e 12 18
e 12 22
e 12 28
e 12 30
e 12 32
e 12 36
e 12 38
e 12 39
e 12 41
e 12 47
e 12 51
e 12 53
e 12 55
e 12 60
e 12 65
e 12 67
e 12 75
e 12 76
e 12 84
e 12 86
e 12 89
e 12 90
e 12 94
e 13 16
e 13 18
e 13 20
e 13 21
e 13 24
e 13 28
e 13 32
e 13 33
e 13 35
e 13 37
e 13 43
e 13 45
e 13 50
e 13 52
e 13 54
e 13 55
e 13 57
e 13 58
e 13 61
e 13 62
e 13 66
e 13 70
e 13 74
e 13 75
e 13 78
e 13 93
e 13 96
e 13 97
e 14 21
e 14 27
e 14 28
e 14 29
e 14 35
e 14 36
e 14 37
e 14 38
e 14 40
e 14 43
e 14 47
e 14 49
e 14 50
e 14 52
e 14 63
e 14 64
e 14 67
e 14 68
e 14 69
e 14 76
e 14 77
e 14 78
e 14 81
e 14 82
e 14 92
e 14 93
e 14 95
e 14 98
e 15 18
e 15 22
e 15 30
e 15 33
e 15 34
e 15 38
e 15 39
e 15 40
e 15 43
e 15 44
e 15 46
e 15 53
e 15 54
e 15 65
e 15 67
e 15 72
e 15 76
e 15 77
e 15 78
e 15 79
e 15 85
e 15 86
e 15 89
e 15 90
e 15 91
e 15 98
e 16 17
e 16 23
e 16 27
e 16 28
e 16 35
e 16 41
e 16 44
e 16 55
e 16 56
e 16 58
e 16 59
e 16 62
e 16 70
e 16 71
e 16 72
e 16 74
e 16 77
e 16 80
e 16 81
e 16 86
e 16 87
e 16 93
e 16 94
e 16 96
e 16 98
e 17 18
e 17 19
e 17 23
e 17 24
e 17 25
e 17 29
e 17 30
e 17 31
e 17 36
e 17 39
e 17 41
e 17 45
e 17 49
e 17 52
e 17 53
e 17 54
e 17 58
e 17 62
e 17 68
e 17 70
e 17 71
e 17 80
e 17 88
e 17 89
e 17 90
e 17 91
e 17 98
e 18 19
e 18 20
e 18 22
e 18 24
e 18 25
e 18 26
e 18 30
e 18 38
e 18 39
e 18 41
e 18 45
e 18 46
e 18 49
e 18 50
e 18 54
e 18 67
e 18 75
e 18 80
e 18 86
e 18 88
e 18 89
e 18 96
e 19 20
e 19 25
e 19 39
e 19 42
e 19 45
e 19 47
e 19 49
e 19 51
e 19 52
e 19 58
e 19 61
e 19 69
e 19 72
e 19 74
e 19 77
e 19 80
e 19 84
e 19 85
e 19 88
e 19 89
e 19 92
e 19 94
e 20 24
e 20 44
e 20 47
e 20 50
e 20 54
e 20 58
e 20 59
e 20 63
e 20 68
e 20 69
e 20 73
e 20 74
e 20 75
e 20 83
e 20 84
e 20 85
e 20 93
e 20 96
e 20 100
e 21 22
e 21 27
e 21 28
e 21 32
e 21 33
e 21 38
e 21 40
e 21 42
e 21 43
e 21 44
e 21 45
e 21 47
e 21 48
e 21 52
e 21 59
e 21 61
e 21 62
e 21 63
e 21 64
e 21 70
e 21 76
e 21 85
e 21 95
e 21 99
e 22 29
e 22 30
e 22 37
e 22 38
e 22 42
e 22 48
e 22 59
e 22 62
e 22 64
e 22 67
e 22 70
e 22 73
e 22 83
e 22 85
e 22 86
e 22 87
e 22 95
e 22 96
e 22 99
e 23 24
e 23 25
e 23 27
e 23 28
e 23 29
e 23 30
e 23 33
e 23 35
e 23 37
e 23 46
e 23 48
e 23 50
e 23 52
e 23 53
e 23 56
e 23 59
e 23 67
e 23 68
e 23 70
e 23 71
e 23 77
e 23 80
e 23 83
e 23 84
e 23 86
e 23 90
e 23 91
e 23 96
e 23 97
e 24 26
e 24 29
e 24 30
e 24 32
e 24 40
e 24 50
e 24 52
e 24 53
e 24 54
e 24 57
e 24 61
e 24 68
e 24 69
e 24 70
e 24 71
e 24 75
e 24 79
e 24 86
e 24 87
e 24 88
e 24 90
e 24 91
e 24 96
e 24 98
e 25 26
e 25 30
e 25 35
e 25 37
e 25 39
e 25 45
e 25 46
e 25 48
e 25 49
e 25 59
e 25 65
e 25 66
e 25 75
e 25 76
e 25 80
e 25 88
e 25 89
e 25 100
e 26 29
e 26 30
e 26 31
e 26 40
e 26 41
e 26 46
e 26 48
e 26 61
e 26 65
e 26 66
e 26 69
e 26 71
e 26 76
e 26 79
e 26 86
e 26 87
e 26 93
e 26 97
e 26 99
e 26 100
e 27 28
e 27 34
e 27 38
e 27 39
e 27 40
e 27 41
e 27 45
e 27 52
e 27 54
e 27 56
e 27 63
e 27 64
e 27 73
e 27 76
e 27 77
e 27 79
e 27 82
e 27 86
e 27 91
e 27 92
e 27 94
e 27 96
e 27 97
e 27 100
e 28 32
e 28 33
e 28 39
e 28 43
e 28 45
e 28 47
e 28 51
e 28 53
e 28 55
e 28 56
e 28 61
e 28 62
e 28 64
e 28 68
e 28 69
e 28 77
e 28 78
e 28 81
e 28 86
e 28 96
e 29 31
e 29 35
e 29 37
e 29 43
e 29 47
e 29 52
e 29 53
e 29 62
e 29 67
e 29 68
e 29 70
e 29 73
e 29 82
e 29 86
e 29 87
e 29 90
e 29 91
e 29 92
e 29 93
e 29 96
e 29 97
e 29 99
e 30 31
e 30 35
e 30 36
e 30 37
e 30 38
e 30 40
e 30 46
e 30 54
e 30 59
e 30 61
e 30 67
e 30 69
e 30 71
e 30 79
e 30 86
e 30 87
e 31 36
e 31 38
e 31 40
e 31 42
e 31 46
e 31 50
e 31 51
e 31 54
e 31 56
e 31 57
e 31 62
e 31 74
e 31 75
e 31 81
e 31 82
e 31 83
e 31 86
e 31 89
e 31 91
e 31 93
e 31 97
e 31 99
e 32 33
e 32 36
e 32 41
e 32 43
e 32 45
e 32 57
e 32 60
e 32 61
e 32 62
e 32 65
e 32 75
e 32 80
e 32 84
e 32 86
e 32 88
e 32 90
e 32 94
e 32 98
e 33 34
e 33 36
e 33 43
e 33 45
e 33 46
e 33 48
e 33 50
e 33 53
e 33 54
e 33 61
e 33 62
e 33 67
e 33 71
e 33 72
e 33 74
e 33 76
e 33 80
e 33 83
e 33 84
e 33 87
e 33 88
e 33 97
e 33 98
e 34 35
e 34 45
e 34 46
e 34 49
e 34 51
e 34 53
e 34 54
e 34 60
e 34 61
e 34 63
e 34 71
e 34 72
e 34 76
e 34 78
e 34 81
e 34 82
e 34 88
e 34 90
e 34 91
e 34 94
e 34 96
e 34 98
e 34 99
e 34 100
e 35 37
e 35 43
e 35 46
e 35 47
e 35 51
e 35 59
e 35 60
e 35 63
e 35 67
e 35 70
e 35 71
e 35 74
e 35 78
e 35 82
e 35 88
e 35 92
e 35 93
e 35 96
e 35 99
e 36 37
e 36 41
e 36 49
e 36 50
e 36 54
e 36 60
e 36 65
e 36 74
e 36 75
e 36 77
e 36 84
e 36 87
e 36 88
e 36 90
e 36 93
e 36 94
e 36 95
e 36 98
e 37 46
e 37 49
e 37 50
e 37 52
e 37 55
e 37 57
e 37 58
e 37 59
e 37 62
e 37 66
e 37 73
e 37 77
e 37 78
e 37 87
e 37 93
e 37 95
e 37 96
e 37 97
e 37 98
e 38 40
e 38 49
e 38 50
e 38 51
e 38 52
e 38 53
e 38 56
e 38 60
e 38 62
e 38 63
e 38 66
e 38 67
e 38 74
e 38 76
e 38 79
e 38 81
e 38 86
e 38 91
e 39 40
e 39 41
e 39 45
e 39 47
e 39 49
e 39 51
e 39 53
e 39 54
e 39 55
e 39 64
e 39 73
e 39 79
e 39 80
e 39 88
e 39 89
e 39 90
e 39 92
e 39 97
e 40 42
e 40 46
e 40 52
e 40 56
e 40 57
e 40 61
e 40 63
e 40 69
e 40 71
e 40 75
e 40 76
e 40 79
e 40 82
e 40 83
e 40 87
e 40 89
e 40 90
e 41 46
e 41 54
e 41 58
e 41 60
e 41 62
e 41 64
e 41 65
e 41 71
e 41 73
e 41 75
e 41 79
e 41 84
e 41 90
e 41 92
e 41 94
e 41 97
e 41 98
e 42 46
e 42 48
e 42 51
e 42 52
e 42 56
e 42 57
e 42 59
e 42 61
e 42 64
e 42 70
e 42 72
e 42 75
e 42 77
e 42 82
e 42 83
e 42 85
e 42 89
e 42 92
e 42 95
e 42 99
e 42 100
e 43 44
e 43 45
e 43 47
e 43 55
e 43 61
e 43 62
e 43 63
e 43 65
e 43 67
e 43 77
e 43 78
e 43 79
e 43 82
e 43 85
e 43 89
e 43 91
e 43 92
e 43 95
e 44 47
e 44 55
e 44 59
e 44 63
e 44 65
e 44 68
e 44 72
e 44 73
e 44 77
e 44 78
e 44 79
e 44 80
e 44 81
e 44 83
e 44 85
e 44 87
e 44 89
e 44 91
e 44 93
e 44 94
e 44 100
e 45 49
e 45 60
e 45 61
e 45 62
e 45 69
e 45 72
e 45 80
e 45 82
e 45 88
e 45 89
e 45 91
e 45 94
e 45 100
e 46 53
e 46 54
e 46 56
e 46 57
e 46 59
e 46 72
e 46 75
e 46 76
e 46 82
e 46 83
e 46 89
e 46 98
e 47 51
e 47 53
e 47 55
e 47 58
e 47 67
e 47 69
e 47 74
e 47 82
e 47 84
e 47 85
e 47 92
e 48 50
e 48 59
e 48 64
e 48 65
e 48 66
e 48 67
e 48 70
e 48 71
e 48 76
e 48 80
e 48 83
e 48 84
e 48 85
e 48 95
e 48 97
e 48 99
e 48 100
e 49 50
e 49 53
e 49 56
e 49 60
e 49 61
e 49 66
e 49 77
e 49 79
e 49 80
e 49 81
e 49 88
e 49 89
e 49 90
e 49 93
e 49 95
e 49 98
e 50 51
e 50 54
e 50 62
e 50 67
e 50 71
e 50 74
e 50 75
e 50 77
e 50 80
e 50 81
e 50 83
e 50 84
e 50 91
e 50 93
e 50 95
e 50 96
e 50 97
e 50 98
e 51 52
e 51 53
e 51 55
e 51 60
e 51 61
e 51 62
e 51 63
e 51 71
e 51 72
e 51 74
e 51 77
e 51 78
e 51 81
e 51 88
e 51 91
e 51 92
e 51 96
e 51 99
e 52 53
e 52 55
e 52 57
e 52 58
e 52 61
e 52 63
e 52 66
e 52 68
e 52 70
e 52 72
e 52 76
e 52 77
e 52 78
e 52 90
e 52 91
e 52 92
e 52 97
e 53 54
e 53 55
e 53 56
e 53 60
e 53 66
e 53 68
e 53 70
e 53 72
e 53 76
e 53 79
e 53 90
e 53 91
e 53 98
e 54 64
e 54 72
e 54 73
e 54 75
e 54 76
e 54 79
e 54 92
e 54 96
e 54 97
e 54 98
e 55 57
e 55 58
e 55 59
e 55 63
e 55 66
e 55 72
e 55 78
e 55 80
e 55 81
e 55 87
e 55 94
e 55 95
e 55 97
e 56 57
e 56 60
e 56 66
e 56 68
e 56 75
e 56 77
e 56 79
e 56 82
e 56 83
e 56 86
e 56 89
e 56 92
e 56 95
e 56 96
e 57 58
e 57 66
e 57 67
e 57 70
e 57 73
e 57 75
e 57 78
e 57 82
e 57 83
e 57 86
e 57 88
e 57 89
e 57 97
e 57 98
e 58 62
e 58 66
e 58 69
e 58 71
e 58 74
e 58 78
e 58 84
e 58 85
e 58 97
e 58 98
e 58 99
e 59 64
e 59 70
e 59 72
e 59 80
e 59 81
e 59 85
e 59 87
e 59 94
e 59 95
e 59 99
e 60 63
e 60 65
e 60 66
e 60 69
e 60 71
e 60 72
e 60 75
e 60 78
e 60 79
e 60 84
e 60 88
e 60 90
e 60 94
e 60 96
e 60 99
e 61 62
e 61 69
e 61 71
e 61 72
e 61 77
e 61 79
e 61 81
e 61 87
e 61 90
e 61 92
e 62 71
e 62 73
e 62 74
e 62 81
e 62 87
e 62 91
e 62 96
e 62 98
e 63 68
e 63 71
e 63 73
e 63 76
e 63 78
e 63 83
e 63 88
e 63 93
e 63 95
e 63 96
e 63 99
e 63 100
e 64 66
e 64 68
e 64 69
e 64 70
e 64 73
e 64 78
e 64 79
e 64 81
e 64 82
e 64 85
e 64 92
e 64 95
e 64 97
e 64 99
e 65 66
e 65 75
e 65 76
e 65 77
e 65 78
e 65 79
e 65 84
e 65 85
e 65 89
e 65 90
e 65 91
e 65 94
e 65 100
e 66 76
e 66 78
e 66 79
e 66 82
e 66 97
e 66 100
e 67 70
e 67 71
e 67 73
e 67 80
e 67 82
e 67 83
e 67 84
e 67 86
e 67 92
e 67 97
e 68 69
e 68 70
e 68 73
e 68 78
e 68 81
e 68 83
e 68 90
e 68 91
e 68 92
e 68 93
e 68 95
e 68 100
e 69 71
e 69 72
e 69 74
e 69 78
e 69 79
e 69 81
e 69 84
e 69 85
e 69 87
e 70 73
e 70 74
e 70 85
e 70 90
e 70 91
e 70 93
e 70 95
e 70 99
e 71 78
e 71 79
e 71 80
e 71 83
e 71 84
e 71 87
e 71 88
e 71 96
e 71 97
e 71 98
e 71 99
e 72 76
e 72 77
e 72 80
e 72 81
e 72 87
e 72 92
e 72 94
e 72 98
e 73 79
e 73 83
e 73 87
e 73 92
e 73 93
e 73 96
e 73 97
e 73 100
e 74 81
e 74 84
e 74 85
e 74 87
e 74 88
e 74 91
e 74 93
e 75 82
e 75 83
e 75 84
e 75 89
e 75 90
e 75 94
e 75 96
e 76 89
e 76 98
e 76 100
e 77 78
e 77 79
e 77 85
e 77 86
e 77 89
e 77 91
e 77 92
e 77 93
e 77 95
e 77 96
e 77 98
e 78 79
e 78 81
e 78 85
e 78 88
e 78 89
e 78 91
e 78 96
e 78 97
e 78 99
e 79 85
e 79 87
e 79 89
e 79 91
e 79 92
e 79 97
e 80 81
e 80 83
e 80 84
e 80 87
e 80 88
e 80 89
e 80 94
e 80 97
e 81 87
e 81 90
e 81 91
e 81 94
e 82 83
e 82 89
e 82 91
e 82 92
e 82 94
e 82 100
e 83 84
e 83 89
e 83 93
e 83 97
e 83 100
e 84 85
e 84 90
e 84 94
e 84 97
e 85 89
e 85 91
e 85 95
e 85 99
e 86 88
e 86 93
e 86 96
e 86 97
e 86 98
e 86 99
e 87 88
e 87 94
e 87 96
e 88 89
e 88 96
e 88 98
e 88 99
e 89 91
e 90 91
e 90 94
e 91 94
e 91 100
e 92 95
e 92 97
e 93 95
e 93 97
e 93 98
e 93 99
e 93 100
e 94 100
e 95 98
e 95 99
e 96 99
e 97 99
